--- Job max_score.gms Start 05/03/20 10:55:31 24.6.1 r55820 WEX-WEI x86 64bit/MS Windows
GAMS 24.6.1   Copyright (C) 1987-2016 GAMS Development. All rights reserved
Licensee: Small MUD - 5 User License                     S180619:0523AO-GEN
          IIASA, Information and Communication Technologies Dep.      DC216
          License for teaching and research at degree granting institutions
          License_Admin:_Melanie_Weed-Wenighofer,_wenighof@iiasa.ac.at_____
--- Starting compilation
--- max_score.gms(84) 3 Mb
--- GDXin=C:\Users\dijk158\Dropbox\mapspam2globiom_mwi\processed_data\intermediate_output\MI02\5min\input_5min_2010_MI02_MWI.gdx
--- max_score.gms(310) 4 Mb
--- Starting execution: elapsed 0:00:00.059
--- max_score.gms(222) 7 Mb
--- Generating LP model max_score
--- max_score.gms(225) 18 Mb
---   6,693 rows  60,309 columns  130,009 non-zeroes
--- Executing CPLEX: elapsed 0:00:00.339

IBM ILOG CPLEX   24.6.1 r55820 Released Jan 18, 2016 WEI x86 64bit/MS Windows 
--- GAMS/Cplex Link licensed for continuous and discrete problems.
Cplex 12.6.3.0

Reading data...
Starting Cplex...
Space for names approximately 2.06 Mb
Use option 'names no' to turn use of names off
Tried aggregator 1 time.
LP Presolve eliminated 806 rows and 29746 columns.
Reduced LP has 5887 rows, 30563 columns, and 74056 nonzeros.
Presolve time = 0.03 sec. (19.09 ticks)
Initializing dual steep norms . . .

Iteration log . . .
Iteration:     1   Dual objective     =        235937.558501
Iteration:   431   Dual objective     =          2596.508039
Iteration:   766   Dual objective     =          2570.031300
Iteration:  1107   Dual objective     =          2556.719951
Iteration:  1409   Dual objective     =          2546.661265
Iteration:  1710   Dual objective     =          2525.588025
Iteration:  1996   Dual objective     =          2515.741414
Iteration:  2278   Dual objective     =          2513.910943
Perturbation started.
Iteration:  2402   Dual objective     =          2513.910943
Iteration:  2666   Dual objective     =          2504.714232
Iteration:  2877   Dual objective     =          2502.412659
Iteration:  3125   Dual objective     =          2498.864754
Iteration:  3337   Dual objective     =          2495.325280
Iteration:  3570   Dual objective     =          2489.619521
Iteration:  3805   Dual objective     =          2486.045413
Iteration:  4044   Dual objective     =          2481.239886
Iteration:  4229   Dual objective     =          2475.454073
Iteration:  4453   Dual objective     =          2472.117924
Iteration:  4667   Dual objective     =          2469.098483
Iteration:  4892   Dual objective     =          2466.052920
Iteration:  5108   Dual objective     =          2463.010090
Iteration:  5313   Dual objective     =          2461.191034
Iteration:  5531   Dual objective     =          2457.450637
Iteration:  5731   Dual objective     =          2456.176584
Iteration:  5969   Dual objective     =          2453.476649
Iteration:  6210   Dual objective     =          2451.561749
Iteration:  6460   Dual objective     =          2450.009843
Iteration:  6680   Dual objective     =          2449.083958
Iteration:  6998   Dual objective     =          2447.579427
Iteration:  7230   Dual objective     =          2446.718897
Iteration:  7558   Dual objective     =          2445.351779
Iteration:  7791   Dual objective     =          2444.914163
Removing perturbation.
LP status(1): optimal
Cplex Time: 0.55sec (det. 419.42 ticks)

Optimal solution found.
Objective :        2444.861636

--- Restarting execution
--- max_score.gms(225) 7 Mb
--- Reading solution for model max_score
--- max_score.gms(305) 10 Mb
--- GDX File C:\Users\dijk158\Dropbox\mapspam2globiom_mwi\processed_data\intermediate_output\MI02\5min\output_5min_2010_MI02_MWI.gdx
*** Status: Normal completion
--- Job max_score.gms Stop 05/03/20 10:55:33 elapsed 0:00:01.932
